\ENCODING=ISO-8859-1
\Problem name: ilog.cplex

Minimize
 obj1: s0 + s1 + s2 + s3 + s4
Subject To
 hsev#0:    h0,4  = 1
 hsev#1:    h1,4  = 1
 hsev#2:    h2,4  = 1
 hsev#3:    h3,4  = 1
 hsev#4:    h4,4  = 1
 s#5:       - s0 + h0,0  = 0
 s#6:       - s1 + h1,0  = 0
 s#7:       - s2 + h2,0  = 0
 s#8:       - s3 + h3,0  = 0
 s#9:       - s4 + h4,0  = 0
 propag#10: - h0,0 + h0,1 >= 0
 propag#11: - h0,1 + h0,2 >= 0
 propag#12: - h0,2 + h0,3 >= 0
 propag#13: h0,4 - h0,3 >= 0
 propag#14: - h1,0 + h1,1 >= 0
 propag#15: - h1,1 + h1,2 >= 0
 propag#16: - h1,2 + h1,3 >= 0
 propag#17: h1,4 - h1,3 >= 0
 propag#18: - h2,0 + h2,1 >= 0
 propag#19: - h2,1 + h2,2 >= 0
 propag#20: - h2,2 + h2,3 >= 0
 propag#21: h2,4 - h2,3 >= 0
 propag#22: - h3,0 + h3,1 >= 0
 propag#23: - h3,1 + h3,2 >= 0
 propag#24: - h3,2 + h3,3 >= 0
 propag#25: h3,4 - h3,3 >= 0
 propag#26: - h4,0 + h4,1 >= 0
 propag#27: - h4,1 + h4,2 >= 0
 propag#28: - h4,2 + h4,3 >= 0
 propag#29: h4,4 - h4,3 >= 0
 c31#30:    2 h0,0 + h1,0 + h4,0 >= 2
 _edge#31:  h0,1 - x31 >= 0
 c33#32:    2 h0,0 + h1,1 + h4,1 >= 2
 _edge#33:  h0,2 - x32 >= 0
 c35#34:    2 h0,0 + h1,2 + h4,2 >= 2
 _edge#35:  h0,3 - x33 >= 0
 c37#36:    h0,0 + 2 h1,0 + h2,0 >= 2
 _edge#37:  h1,1 - x34 >= 0
 c39#38:    2 h1,0 + h0,1 + h2,1 >= 2
 _edge#39:  h1,2 - x35 >= 0
 c41#40:    2 h1,0 + h0,2 + h2,2 >= 2
 _edge#41:  h1,3 - x36 >= 0
 c43#42:    h1,0 + 2 h2,0 + h3,0 >= 2
 _edge#43:  h2,1 - x37 >= 0
 c45#44:    2 h2,0 + h1,1 + h3,1 >= 2
 _edge#45:  h2,2 - x38 >= 0
 c47#46:    2 h2,0 + h1,2 + h3,2 >= 2
 _edge#47:  h2,3 - x39 >= 0
 c49#48:    h2,0 + 2 h3,0 + h4,0 >= 2
 _edge#49:  h3,1 - x40 >= 0
 c51#50:    2 h3,0 + h2,1 + h4,1 >= 2
 _edge#51:  h3,2 - x41 >= 0
 c53#52:    2 h3,0 + h2,2 + h4,2 >= 2
 _edge#53:  h3,3 - x42 >= 0
 c55#54:    h0,0 + h3,0 + 2 h4,0 >= 2
 _edge#55:  h4,1 - x43 >= 0
 c57#56:    2 h4,0 + h0,1 + h3,1 >= 2
 _edge#57:  h4,2 - x44 >= 0
 c59#58:    2 h4,0 + h0,2 + h3,2 >= 2
 _edge#59:  h4,3 - x45 >= 0
 IloI0:  x31 = 1 <-> 2 h0,0 + h1,0 + h4,0 => 2
 IloI1:  x32 = 1 <-> 2 h0,0 + h1,1 + h4,1 => 2
 IloI2:  x33 = 1 <-> 2 h0,0 + h1,2 + h4,2 => 2
 IloI3:  x34 = 1 <-> h0,0 + 2 h1,0 + h2,0 => 2
 IloI4:  x35 = 1 <-> 2 h1,0 + h0,1 + h2,1 => 2
 IloI5:  x36 = 1 <-> 2 h1,0 + h0,2 + h2,2 => 2
 IloI6:  x37 = 1 <-> h1,0 + 2 h2,0 + h3,0 => 2
 IloI7:  x38 = 1 <-> 2 h2,0 + h1,1 + h3,1 => 2
 IloI8:  x39 = 1 <-> 2 h2,0 + h1,2 + h3,2 => 2
 IloI9:  x40 = 1 <-> h2,0 + 2 h3,0 + h4,0 => 2
 IloI10: x41 = 1 <-> 2 h3,0 + h2,1 + h4,1 => 2
 IloI11: x42 = 1 <-> 2 h3,0 + h2,2 + h4,2 => 2
 IloI12: x43 = 1 <-> h0,0 + h3,0 + 2 h4,0 => 2
 IloI13: x44 = 1 <-> 2 h4,0 + h0,1 + h3,1 => 2
 IloI14: x45 = 1 <-> 2 h4,0 + h0,2 + h3,2 => 2
Bounds
 0 <= s0 <= 1
 0 <= s1 <= 1
 0 <= s2 <= 1
 0 <= s3 <= 1
 0 <= s4 <= 1
 0 <= h0,4 <= 1
 0 <= h1,4 <= 1
 0 <= h2,4 <= 1
 0 <= h3,4 <= 1
 0 <= h4,4 <= 1
 0 <= h0,0 <= 1
 0 <= h1,0 <= 1
 0 <= h2,0 <= 1
 0 <= h3,0 <= 1
 0 <= h4,0 <= 1
 0 <= h0,1 <= 1
 0 <= h0,2 <= 1
 0 <= h0,3 <= 1
 0 <= h1,1 <= 1
 0 <= h1,2 <= 1
 0 <= h1,3 <= 1
 0 <= h2,1 <= 1
 0 <= h2,2 <= 1
 0 <= h2,3 <= 1
 0 <= h3,1 <= 1
 0 <= h3,2 <= 1
 0 <= h3,3 <= 1
 0 <= h4,1 <= 1
 0 <= h4,2 <= 1
 0 <= h4,3 <= 1
 0 <= x31 <= 1
 0 <= x32 <= 1
 0 <= x33 <= 1
 0 <= x34 <= 1
 0 <= x35 <= 1
 0 <= x36 <= 1
 0 <= x37 <= 1
 0 <= x38 <= 1
 0 <= x39 <= 1
 0 <= x40 <= 1
 0 <= x41 <= 1
 0 <= x42 <= 1
 0 <= x43 <= 1
 0 <= x44 <= 1
 0 <= x45 <= 1
Binaries
 s0  s1  s2  s3  s4  h0,4  h1,4  h2,4  h3,4  h4,4  h0,0  h1,0  h2,0  h3,0 
 h4,0  h0,1  h0,2  h0,3  h1,1  h1,2  h1,3  h2,1  h2,2  h2,3  h3,1  h3,2  h3,3 
 h4,1  h4,2  h4,3  x31  x32  x33  x34  x35  x36  x37  x38  x39  x40  x41  x42 
 x43  x44  x45 
End
